c random assignment satisfied 30/430 clauses
o 400
c flipped 0/100 variables (k=0)
c solution improved by 46 clauses
o 354
c flipped 0/100 variables (k=0)
c solution improved by 84 clauses
o 270
c flipped 0/100 variables (k=0)
c solution improved by 65 clauses
o 205
c flipped 0/100 variables (k=0)
c solution improved by 16 clauses
o 189
c flipped 0/100 variables (k=0)
c solution improved by 6 clauses
o 183
c flipped 0/100 variables (k=0)
c solution improved by 32 clauses
o 151
c flipped 0/100 variables (k=0)
c solution improved by 1 clause
o 150
c flipped 0/100 variables (k=0)
c solution improved by 2 clauses
o 148
c flipped 0/100 variables (k=0)
c solution improved by 1 clause
o 147
c flipped 0/100 variables (k=0)
c solution improved by 1 clause
o 146
c flipped 0/100 variables (k=0)
c solution improved by 1 clause
o 145
c flipped 0/100 variables (k=0)
c solution improved by 1 clause
o 144
c flipped 0/100 variables (k=0)
c solution improved by 6 clauses
o 138
c flipped 0/100 variables (k=0)
c solution improved by 31 clauses
o 107
c flipped 0/100 variables (k=0)
c solution improved by 1 clause
o 106
c flipped 0/100 variables (k=0)
c solution improved by 2 clauses
o 104
c flipped 0/100 variables (k=0)
c solution improved by 1 clause
o 103
c flipped 0/100 variables (k=0)
c solution improved by 8 clauses
o 95
c flipped 0/100 variables (k=0)
c solution improved by 2 clauses
o 93
c flipped 0/100 variables (k=0)
c solution improved by 1 clause
o 92
c flipped 0/100 variables (k=0)
c solution improved by 1 clause
o 91
c flipped 0/100 variables (k=0)
c solution improved by 1 clause
o 90
c flipped 0/100 variables (k=0)
c solution improved by 28 clauses
o 62
c flipped 0/100 variables (k=0)
c solution improved by 1 clause
o 61
c flipped 0/100 variables (k=0)
c solution improved by 1 clause
o 60
c flipped 0/100 variables (k=0)
c solution improved by 4 clauses
o 56
c flipped 0/100 variables (k=0)
c solution improved by 2 clauses
o 54
c flipped 0/100 variables (k=0)
c solution improved by 1 clause
o 53
c flipped 0/100 variables (k=0)
c solution improved by 1 clause
o 52
c flipped 0/100 variables (k=0)
c solution improved by 1 clause
o 51
v 0001111000000000010100011100011000010001010001000011010101010011000000001101000101101101011100011111
c stuck at 379/430 clauses with k=0
s UNKNOWN
